p tw 165 496
0 1
0 2
0 163
0 164
1 2
1 90
1 91
1 92
1 93
2 115
2 130
2 160
2 161
3 4
3 5
3 6
3 7
3 30
3 42
3 52
3 53
3 54
4 5
4 6
4 7
4 157
5 6
5 7
5 37
5 125
6 7
6 32
6 39
6 50
6 67
6 68
6 69
6 70
6 71
7 85
7 86
7 87
8 9
8 10
8 98
9 10
9 95
9 138
9 139
9 140
10 16
10 61
10 135
10 147
11 12
11 113
11 124
12 66
12 100
12 114
12 132
13 14
13 86
13 116
14 85
14 131
15 16
15 17
15 44
15 47
15 62
15 117
15 118
16 17
16 61
16 135
16 147
17 51
17 93
18 19
18 20
18 80
18 89
18 136
18 137
19 20
19 81
19 88
19 99
19 100
19 101
19 102
19 103
19 104
20 82
21 22
21 78
21 79
22 119
22 162
23 24
23 25
23 58
23 124
23 132
24 25
24 59
25 60
26 27
26 28
26 84
26 105
26 112
26 113
26 114
27 28
27 83
27 115
28 107
28 145
28 153
28 158
29 30
29 31
29 152
30 31
30 42
30 52
30 53
30 54
31 108
31 109
31 110
31 111
32 33
32 34
32 39
32 50
32 67
32 68
32 69
32 70
32 71
33 34
33 41
34 40
34 46
34 133
34 154
35 36
35 76
35 102
35 122
35 123
36 75
36 134
37 38
37 39
37 40
37 41
37 42
37 125
38 39
38 40
38 41
38 42
38 129
38 130
39 40
39 41
39 42
39 50
39 67
39 68
39 69
39 70
39 71
40 41
40 42
40 46
40 133
40 154
41 42
42 52
42 53
42 54
43 44
43 45
43 72
44 45
44 47
44 62
44 117
44 118
45 79
45 128
45 162
46 47
46 48
46 49
46 50
46 51
46 133
46 154
47 48
47 49
47 50
47 51
47 62
47 117
47 118
48 49
48 50
48 51
48 57
49 50
49 51
49 126
49 127
50 51
50 67
50 68
50 69
50 70
50 71
51 93
52 53
52 54
52 108
52 152
53 54
53 87
53 157
54 111
54 129
55 56
55 74
55 94
56 73
56 141
57 67
57 133
58 59
58 60
58 124
58 132
59 60
61 62
61 63
61 135
61 147
62 63
62 117
62 118
63 77
64 65
64 66
64 80
64 81
64 82
64 83
64 84
65 66
65 101
66 100
66 114
66 132
67 68
67 69
67 70
67 71
67 133
68 69
68 70
68 71
68 72
68 117
68 127
68 128
69 70
69 71
69 154
70 71
70 125
71 126
72 117
72 127
72 128
73 74
73 75
73 76
73 141
74 75
74 76
74 94
75 76
75 134
76 102
76 122
76 123
77 118
77 135
78 79
78 119
79 128
79 162
80 81
80 82
80 83
80 84
80 89
80 136
80 137
81 82
81 83
81 84
81 88
81 99
81 100
81 101
81 102
81 103
81 104
82 83
82 84
83 84
83 115
84 105
84 112
84 113
84 114
85 86
85 87
85 131
86 87
86 116
87 157
88 89
88 99
88 100
88 101
88 102
88 103
88 104
89 136
89 137
90 91
90 92
90 93
90 161
90 164
91 92
91 93
91 120
91 121
92 93
92 160
92 163
94 141
95 96
95 97
95 138
95 139
95 140
96 97
96 159
97 122
97 134
97 148
97 149
97 150
98 139
98 147
99 100
99 101
99 102
99 103
99 104
99 137
99 143
100 101
100 102
100 103
100 104
100 114
100 132
101 102
101 103
101 104
102 103
102 104
102 122
102 123
103 104
103 146
104 121
104 136
104 149
104 155
104 156
105 106
105 107
105 112
105 113
105 114
106 107
106 142
107 145
107 153
107 158
108 109
108 110
108 111
108 152
109 110
109 111
109 144
109 145
110 111
110 151
110 158
111 129
112 113
112 114
112 142
112 153
113 114
113 124
114 132
115 130
115 160
115 161
116 131
117 118
117 127
117 128
118 135
119 162
120 121
120 140
120 148
121 136
121 149
121 155
121 156
122 123
122 134
122 148
122 149
122 150
123 146
123 155
124 132
126 127
127 128
128 162
129 130
130 160
130 161
133 154
134 148
134 149
134 150
135 147
136 137
136 149
136 155
136 156
137 143
138 139
138 140
138 150
138 159
139 140
139 147
140 148
142 153
143 156
144 145
144 151
145 153
145 158
146 155
148 149
148 150
149 150
149 155
149 156
150 159
151 158
153 158
155 156
160 161
160 163
161 164
163 164
